All .csv files have been loaded successfully.


Simulation Parameters:
------------------------------------------------------
Initial Time: 05:30:00
Period Length: 5 minutes
Total Operation Hours: 6 hours

Minimum Number of Crew Breaks (nc): 1
Crew Break Duration (Dc): 9 minutes
Maximum Separation Time for Crew Breaks (Tc): 360 minutes

Charging Rate (rv_plus): 15.91% per period
Plugging/Unplugging Time (pc): 2 minutes
------------------------------------------------------

Vset, Wset, Tset, Jset, and Dset have been defined.

Using license file /usr/local/gurobi/9.1.2/gurobi.lic
Set parameter TokenServer to value gurobi.lic.sydney.edu.au
All results matrices have been loaded from files with prefix "6htest_simplified_B".

Results loaded successfully.

All constraintrs are ready.

Starting optimization with 0 variables and 0 constraints.

Parameter OutputFlag unchanged
   Value: 1  Min: 0  Max: 1  Default: 1
Changed value of parameter InfUnbdInfo to 1
   Prev: 0  Min: 0  Max: 1  Default: 0
Changed value of parameter Presolve to 2
   Prev: -1  Min: -1  Max: 2  Default: -1
Changed value of parameter ScaleFlag to 1
   Prev: -1  Min: -1  Max: 3  Default: -1
Changed value of parameter Threads to 64
   Prev: 0  Min: 0  Max: 1024  Default: 0
Changed value of parameter MIPGap to 0.9
   Prev: 0.0001  Min: 0.0  Max: inf  Default: 0.0001
Changed value of parameter Heuristics to 0.5
   Prev: 0.05  Min: 0.0  Max: 1.0  Default: 0.05
Gurobi Optimizer version 9.1.2 build v9.1.2rc0 (linux64)
Thread count: 32 physical cores, 32 logical processors, using up to 64 threads

Warning: Thread count (64) is larger than processor count (32)
         Reduce the value of the Threads parameter to improve performance

Optimize a model with 329400 rows, 151497 columns and 63909706 nonzeros
Model fingerprint: 0x1e57a750
Model has 1656 quadratic constraints
Variable types: 1944 continuous, 149553 integer (149553 binary)
Coefficient statistics:
  Matrix range     [1e-02, 5e+03]
  QMatrix range    [1e+00, 1e+00]
  QLMatrix range   [1e+00, 1e+00]
  Objective range  [1e+00, 2e+01]
  Bounds range     [1e+00, 1e+00]
  RHS range        [1e+00, 5e+03]
  QRHS range       [1e+00, 2e+00]
Presolve removed 77483 rows and 40962 columns (presolve time = 7s) ...
Presolve removed 77665 rows and 41339 columns (presolve time = 10s) ...
Presolve removed 83295 rows and 44521 columns (presolve time = 16s) ...
Presolve removed 83363 rows and 44557 columns (presolve time = 23s) ...
Presolve removed 83668 rows and 45668 columns (presolve time = 33s) ...
Presolve removed 84616 rows and 45668 columns (presolve time = 36s) ...
Presolve removed 84643 rows and 45668 columns (presolve time = 40s) ...
Presolve removed 85621 rows and 48316 columns (presolve time = 45s) ...
Presolve removed 85621 rows and 48316 columns (presolve time = 50s) ...
Presolve removed 85621 rows and 48316 columns (presolve time = 55s) ...
Presolve removed 85621 rows and 48316 columns (presolve time = 60s) ...
Presolve removed 85621 rows and 48316 columns (presolve time = 65s) ...
Presolve removed 85621 rows and 48316 columns (presolve time = 70s) ...
Presolve removed 85621 rows and 48316 columns (presolve time = 75s) ...
Presolve removed 85621 rows and 48316 columns (presolve time = 80s) ...
Presolve removed 85621 rows and 48316 columns (presolve time = 85s) ...
Presolve removed 85621 rows and 48316 columns (presolve time = 90s) ...
Presolve removed 85621 rows and 48316 columns (presolve time = 95s) ...
Presolve removed 85621 rows and 48316 columns (presolve time = 100s) ...
Presolve removed 85621 rows and 48316 columns (presolve time = 105s) ...
Presolve removed 85621 rows and 48316 columns (presolve time = 110s) ...
Presolve removed 85621 rows and 48316 columns (presolve time = 115s) ...
Presolve removed 85621 rows and 48316 columns (presolve time = 120s) ...
Presolve removed 85621 rows and 48316 columns (presolve time = 125s) ...
Presolve removed 96126 rows and 51726 columns (presolve time = 131s) ...
Presolve removed 96781 rows and 52099 columns (presolve time = 135s) ...
Presolve removed 97374 rows and 52099 columns (presolve time = 141s) ...
Presolve removed 97430 rows and 52303 columns (presolve time = 146s) ...
Presolve removed 99203 rows and 52303 columns (presolve time = 150s) ...
Presolve removed 99631 rows and 52457 columns (presolve time = 155s) ...
Presolve removed 99631 rows and 52476 columns (presolve time = 160s) ...
Presolve removed 99631 rows and 52476 columns (presolve time = 165s) ...
Presolve removed 99631 rows and 52476 columns (presolve time = 170s) ...
Presolve removed 99631 rows and 52476 columns (presolve time = 175s) ...
Presolve removed 99631 rows and 52476 columns (presolve time = 180s) ...
Presolve removed 99631 rows and 52476 columns (presolve time = 185s) ...
Presolve removed 99631 rows and 52476 columns (presolve time = 190s) ...
Presolve removed 99631 rows and 52476 columns (presolve time = 195s) ...
Presolve removed 99631 rows and 52476 columns (presolve time = 200s) ...
Presolve removed 99631 rows and 52476 columns (presolve time = 205s) ...
Presolve removed 99631 rows and 52476 columns (presolve time = 210s) ...
Presolve removed 99631 rows and 52476 columns (presolve time = 215s) ...
Presolve removed 99631 rows and 52476 columns (presolve time = 220s) ...
Presolve removed 99631 rows and 52476 columns (presolve time = 225s) ...
Presolve removed 102998 rows and 54878 columns (presolve time = 231s) ...
Presolve removed 107584 rows and 57406 columns (presolve time = 236s) ...
Presolve removed 108836 rows and 57406 columns (presolve time = 242s) ...
Presolve removed 108863 rows and 57677 columns (presolve time = 247s) ...
Presolve removed 111373 rows and 57677 columns (presolve time = 250s) ...
Presolve removed 111443 rows and 57677 columns (presolve time = 255s) ...
Presolve removed 111443 rows and 57677 columns (presolve time = 260s) ...
Presolve removed 111443 rows and 57677 columns (presolve time = 265s) ...
Presolve removed 111443 rows and 57677 columns (presolve time = 270s) ...
Presolve removed 111443 rows and 57677 columns (presolve time = 275s) ...
Presolve removed 111443 rows and 57677 columns (presolve time = 280s) ...
Presolve removed 111443 rows and 57677 columns (presolve time = 285s) ...
Presolve removed 111443 rows and 57677 columns (presolve time = 290s) ...
Presolve removed 111443 rows and 57677 columns (presolve time = 295s) ...
Presolve removed 111443 rows and 57677 columns (presolve time = 300s) ...
Presolve removed 111443 rows and 57677 columns (presolve time = 305s) ...
Presolve removed 111443 rows and 57677 columns (presolve time = 310s) ...
Presolve removed 111443 rows and 57677 columns (presolve time = 315s) ...
Presolve removed 111443 rows and 57677 columns (presolve time = 320s) ...
Presolve removed 111664 rows and 57677 columns (presolve time = 325s) ...
Presolve removed 111675 rows and 57698 columns (presolve time = 335s) ...
Presolve removed 111675 rows and 57698 columns (presolve time = 335s) ...
Presolve removed 111682 rows and 57698 columns (presolve time = 340s) ...
Presolve removed 111780 rows and 57698 columns (presolve time = 345s) ...
Presolve removed 111780 rows and 57698 columns (presolve time = 350s) ...
Presolve removed 111780 rows and 57698 columns (presolve time = 355s) ...
Presolve removed 111780 rows and 57698 columns (presolve time = 360s) ...
Presolve removed 111780 rows and 57698 columns (presolve time = 365s) ...
Presolve removed 111780 rows and 57698 columns (presolve time = 370s) ...
Presolve removed 111780 rows and 57698 columns (presolve time = 375s) ...
Presolve removed 111780 rows and 57698 columns (presolve time = 380s) ...
Presolve removed 111780 rows and 57698 columns (presolve time = 385s) ...
Presolve removed 111780 rows and 57698 columns (presolve time = 390s) ...
Presolve removed 111780 rows and 57698 columns (presolve time = 395s) ...
Presolve removed 111780 rows and 57698 columns (presolve time = 400s) ...
Presolve removed 111780 rows and 57698 columns (presolve time = 405s) ...
Presolve removed 111780 rows and 57698 columns (presolve time = 410s) ...
Presolve removed 111780 rows and 57814 columns (presolve time = 447s) ...
Presolve removed 111780 rows and 60069 columns (presolve time = 458s) ...
Presolve removed 111780 rows and 60845 columns (presolve time = 468s) ...
Presolve removed 117839 rows and 61394 columns (presolve time = 470s) ...
Presolve removed 117839 rows and 61497 columns (presolve time = 476s) ...
Presolve removed 117839 rows and 61497 columns (presolve time = 485s) ...
Presolve removed 135764 rows and 61497 columns (presolve time = 494s) ...
Presolve removed 135764 rows and 61591 columns (presolve time = 495s) ...
Presolve removed 136349 rows and 62176 columns (presolve time = 504s) ...
Presolve removed 136349 rows and 62176 columns (presolve time = 505s) ...
Presolve removed 136467 rows and 62176 columns (presolve time = 510s) ...
Presolve removed 136565 rows and 62176 columns (presolve time = 515s) ...
Presolve removed 136566 rows and 62176 columns (presolve time = 520s) ...
Presolve removed 136566 rows and 62176 columns (presolve time = 525s) ...
Presolve removed 136566 rows and 62176 columns (presolve time = 530s) ...
Presolve removed 136566 rows and 62176 columns (presolve time = 535s) ...
Presolve removed 136566 rows and 62176 columns (presolve time = 540s) ...
Presolve removed 136566 rows and 62176 columns (presolve time = 545s) ...
Presolve removed 136566 rows and 62176 columns (presolve time = 550s) ...
Presolve removed 138420 rows and 62501 columns (presolve time = 560s) ...
Presolve removed 138500 rows and 62591 columns (presolve time = 569s) ...
Presolve removed 138500 rows and 62591 columns (presolve time = 570s) ...
Presolve removed 138501 rows and 62591 columns (presolve time = 575s) ...
Presolve removed 138512 rows and 62591 columns (presolve time = 580s) ...
Presolve removed 138512 rows and 62591 columns (presolve time = 585s) ...
Presolve removed 138512 rows and 62591 columns (presolve time = 590s) ...
Presolve removed 138512 rows and 62591 columns (presolve time = 595s) ...
Presolve removed 138512 rows and 62591 columns (presolve time = 600s) ...
Presolve removed 138512 rows and 62591 columns (presolve time = 605s) ...
Presolve removed 138512 rows and 62591 columns (presolve time = 610s) ...
Presolve removed 138512 rows and 62591 columns (presolve time = 615s) ...
Presolve removed 140873 rows and 62591 columns (presolve time = 650s) ...
Presolve removed 140873 rows and 62591 columns (presolve time = 650s) ...
Presolve removed 142172 rows and 63890 columns (presolve time = 668s) ...
Presolve removed 130527 rows and 53747 columns
Presolve time: 668.45s
Presolved: 201773 rows, 100506 columns, 12288166 nonzeros
Variable types: 0 continuous, 100506 integer (94846 binary)

Deterministic concurrent LP optimizer: primal simplex, dual simplex, and barrier
Showing barrier log only...

Presolve removed 259 rows and 259 columns (presolve time = 5s) ...
Presolve removed 259 rows and 259 columns (presolve time = 10s) ...
Presolve removed 259 rows and 259 columns (presolve time = 15s) ...
Presolve removed 259 rows and 259 columns (presolve time = 20s) ...
Presolve removed 259 rows and 259 columns (presolve time = 25s) ...
Presolve removed 259 rows and 259 columns (presolve time = 30s) ...
Presolve removed 259 rows and 259 columns (presolve time = 35s) ...
Presolve removed 259 rows and 259 columns (presolve time = 40s) ...
Presolve removed 259 rows and 259 columns (presolve time = 45s) ...
Presolve removed 259 rows and 259 columns (presolve time = 50s) ...
Presolve removed 259 rows and 259 columns (presolve time = 55s) ...
Presolve removed 259 rows and 259 columns
Presolved: 201514 rows, 100247 columns, 12287481 nonzeros

Root barrier log...

Elapsed ordering time = 5s
Elapsed ordering time = 11s
Elapsed ordering time = 15s
Elapsed ordering time = 20s
Ordering time: 43.51s

Barrier statistics:
 AA' NZ     : 9.360e+07
 Factor NZ  : 3.162e+08 (roughly 2.7 GBytes of memory)
 Factor Ops : 6.252e+11 (roughly 2 seconds per iteration)
 Threads    : 61

                  Objective                Residual
Iter       Primal          Dual         Primal    Dual     Compl     Time
   0  -8.87125641e+05 -4.12082065e+04  3.27e+03 1.20e+00  2.60e+01   798s
   1  -6.02094438e+05 -5.92307344e+04  2.23e+03 2.78e+00  1.58e+01   801s
   2  -3.87161371e+05 -7.36170696e+04  1.44e+03 1.33e+00  9.29e+00   804s
   3  -1.87429796e+05 -8.79423707e+04  6.98e+02 5.43e-01  4.67e+00   807s
   4  -1.15163262e+05 -8.41147618e+04  4.28e+02 6.03e-02  2.47e+00   810s
   5  -3.51457300e+04 -6.56722481e+04  1.29e+02 1.94e-02  8.12e-01   813s
   6  -1.78805447e+04 -4.07886173e+04  6.54e+01 5.02e-03  4.01e-01   816s
   7  -1.11389971e+04 -2.91701983e+04  4.07e+01 2.60e-03  2.46e-01   819s
   8  -7.11690237e+03 -1.71692886e+04  2.61e+01 3.66e-15  1.40e-01   822s
   9  -4.17905807e+03 -9.68449907e+03  1.55e+01 3.03e-15  7.34e-02   825s
  10  -2.24700114e+03 -6.85736817e+03  8.57e+00 4.69e-15  4.15e-02   828s
  11  -1.10442086e+03 -4.82653595e+03  4.47e+00 2.89e-15  2.32e-02   831s
  12  -5.38142401e+02 -2.67282668e+03  2.44e+00 1.69e-15  1.15e-02   834s
  13  -1.29525689e+02 -1.07141776e+03  9.42e-01 1.12e-15  4.10e-03   837s
  14   3.40648386e+01 -3.31056796e+02  2.91e-01 7.33e-16  1.31e-03   840s
  15   5.02178701e+01 -1.30765774e+02  2.03e-01 5.38e-16  6.77e-04   843s
  16   5.79545422e+01 -5.56747266e+01  1.53e-01 2.74e-16  4.38e-04   846s
  17   6.23747124e+01 -1.08724245e+01  1.16e-01 2.91e-16  2.93e-04   849s
  18   6.39339039e+01  1.19262295e+01  9.98e-02 2.67e-16  2.21e-04   852s
  19   6.49845054e+01  2.44241777e+01  8.60e-02 1.57e-16  1.78e-04   855s
  20   6.52813782e+01  3.33961095e+01  8.21e-02 1.05e-16  1.51e-04   858s
  21   6.57118661e+01  4.21346515e+01  6.90e-02 1.05e-16  1.18e-04   861s
  22   6.61164819e+01  4.87986301e+01  5.52e-02 1.15e-16  8.97e-05   864s
  23   6.62262052e+01  5.20782345e+01  4.19e-02 9.02e-17  7.05e-05   867s
  24   6.67061591e+01  5.65614261e+01  3.15e-02 1.72e-16  5.15e-05   870s
  25   6.69582711e+01  6.01152015e+01  2.26e-02 1.42e-16  3.57e-05   873s
  26   6.73938421e+01  6.17188102e+01  1.76e-02 1.39e-16  2.87e-05   876s
  27   6.78372567e+01  6.44761579e+01  1.17e-02 1.01e-16  1.80e-05   880s
  28   6.80182231e+01  6.54605520e+01  8.72e-03 4.75e-17  1.35e-05   883s
  29   6.80717635e+01  6.65816814e+01  8.07e-03 3.81e-17  1.02e-05   886s
  30   6.82390319e+01  6.70827695e+01  5.43e-03 5.53e-17  7.27e-06   889s
  31   6.83213578e+01  6.77638515e+01  4.39e-03 8.13e-17  4.90e-06   892s
  32   6.84381762e+01  6.80788783e+01  3.14e-03 1.73e-16  3.41e-06   896s
  33   6.84738927e+01  6.82162179e+01  2.73e-03 3.88e-17  2.82e-06   899s
  34   6.85454848e+01  6.83789719e+01  2.04e-03 5.79e-17  2.04e-06   902s
  35   6.85858927e+01  6.84749994e+01  1.73e-03 5.12e-17  1.65e-06   905s
  36   6.86294032e+01  6.85163386e+01  1.41e-03 1.54e-16  1.40e-06   908s
  37   6.86670803e+01  6.85900446e+01  1.15e-03 1.95e-16  1.10e-06   911s
  38   6.87034199e+01  6.86339254e+01  8.73e-04 6.05e-17  8.66e-07   915s
  39   6.87175331e+01  6.86879868e+01  6.89e-04 3.64e-17  6.19e-07   918s
  40   6.87390703e+01  6.87475931e+01  5.00e-04 6.14e-17  3.73e-07   922s
  41   6.87692652e+01  6.87700648e+01  3.04e-04 2.52e-17  2.38e-07   925s
  42   6.87904632e+01  6.87890440e+01  1.72e-04 4.40e-17  1.40e-07   929s
  43   6.87965608e+01  6.87940950e+01  1.28e-04 1.40e-16  1.07e-07   932s
  44   6.88025331e+01  6.88008166e+01  9.33e-05 1.18e-16  7.80e-08   935s
  45   6.88080788e+01  6.88063810e+01  6.08e-05 9.48e-17  5.23e-08   938s
  46   6.88101699e+01  6.88093214e+01  4.85e-05 4.26e-17  4.04e-08   941s
  47   6.88130810e+01  6.88136008e+01  3.08e-05 7.16e-17  2.30e-08   944s
  48   6.88148910e+01  6.88163096e+01  1.88e-05 4.47e-17  1.12e-08   948s
  49   6.88159763e+01  6.88172073e+01  1.28e-05 7.80e-17  6.95e-09   951s
  50   6.88165488e+01  6.88175310e+01  9.59e-06 4.84e-17  5.06e-09   954s
  51   6.88170321e+01  6.88176510e+01  6.91e-06 1.16e-16  3.88e-09   957s
  52   6.88173170e+01  6.88178328e+01  5.33e-06 7.28e-17  2.89e-09   960s
  53   6.88175912e+01  6.88180229e+01  3.80e-06 8.62e-17  1.90e-09   963s
  54   6.88179073e+01  6.88181863e+01  1.93e-06 1.46e-16  8.16e-10   966s
  55   6.88181484e+01  6.88182401e+01  6.43e-07 5.28e-17  2.73e-10   970s
  56   6.88182611e+01  6.88182533e+01  3.86e-08 6.78e-17  4.98e-11   973s

Barrier solved model in 56 iterations and 973.11 seconds
Optimal objective 6.88182611e+01


Root crossover log...

   11917 DPushes remaining with DInf 2.3147258e-01               975s
     907 DPushes remaining with DInf 1.3429506e-01               975s
       0 DPushes remaining with DInf 5.3821618e-02               976s

   53826 PPushes remaining with PInf 7.1077852e-03               976s
   26520 PPushes remaining with PInf 9.7504314e-02               980s
   20406 PPushes remaining with PInf 2.9584886e-02               985s
   15289 PPushes remaining with PInf 1.7161430e-02               990s
   11978 PPushes remaining with PInf 1.7161430e-02               996s
    9927 PPushes remaining with PInf 1.6173382e-02              1001s
    7956 PPushes remaining with PInf 8.1011208e-03              1007s
    6647 PPushes remaining with PInf 7.9001908e-03              1011s
    5402 PPushes remaining with PInf 5.0037081e-03              1015s
    3851 PPushes remaining with PInf 1.1918868e-03              1021s
    2997 PPushes remaining with PInf 1.3506870e-04              1026s
    2284 PPushes remaining with PInf 1.4653584e-05              1030s
    1323 PPushes remaining with PInf 0.0000000e+00              1037s
     611 PPushes remaining with PInf 0.0000000e+00              1042s
       0 PPushes remaining with PInf 0.0000000e+00              1047s

  Push phase complete: Pinf 0.0000000e+00, Dinf 2.8783221e-02   1047s


Root simplex log...

Iteration    Objective       Primal Inf.    Dual Inf.      Time
   55686    6.8818268e+01   0.000000e+00   2.878322e-02   1047s
   55859    6.8818267e+01   0.000000e+00   0.000000e+00   1054s
   55859    6.8818267e+01   0.000000e+00   0.000000e+00   1055s
Concurrent spin time: 0.08s

Solved with barrier

Root relaxation: objective 6.881827e+01, 55859 iterations, 380.40 seconds
Total elapsed time = 1169.43s
Total elapsed time = 1177.87s
Total elapsed time = 1180.47s

    Nodes    |    Current Node    |     Objective Bounds      |     Work
 Expl Unexpl |  Obj  Depth IntInf | Incumbent    BestBd   Gap | It/Node Time

     0     0   68.81827    0 13283          -   68.81827      -     - 1242s
     0     0   74.05266    0 13746          -   74.05266      -     - 72439s
     0     0   77.91356    0 13478          -   77.91356      -     - 124459s
     0     0   78.11299    0 13653          -   78.11299      -     - 127823s
     0     0   78.13295    0 13789          -   78.13295      -     - 128932s
     0     0   81.19248    0 14420          -   81.19248      -     - 187907s
     0     0   82.11479    0 14480          -   82.11479      -     - 203743s
     0     0   82.30160    0 14303          -   82.30160      -     - 206782s
     0     0   82.34226    0 14646          -   82.34226      -     - 211616s
     0     0   85.01488    0 14677          -   85.01488      -     - 325095s
     0     0   85.86135    0 14788          -   85.86135      -     - 362702s
     0     0   86.09776    0 14549          -   86.09776      -     - 367184s
     0     0   86.14817    0 14653          -   86.14817      -     - 369687s
     0     0   88.45264    0 14127          -   88.45264      -     - 487626s
     0     0   88.94260    0 14787          -   88.94260      -     - 497044s
     0     0   89.08189    0 14984          -   89.08189      -     - 500581s
